32	0

0	1	2
3	1	3
1	1	4
5	1	5
4	1	6
10	1	7
4	1	8
3	2	9	10
7	1	11
4	1	11
10	1	12
10	1	13
6	1	14
5	2	15	16
8	1	17
1	1	17
6	1	18
2	1	19
4	1	20
9	2	21	22
8	1	23
2	1	23
2	1	24
4	1	25
5	2	26	27
9	1	28
9	1	28
8	1	29
7	1	30
2	1	31
3	1	32
0	0
